1883, 0, 0, 99, 0
1884, 0, 1, 55, 1
1885, 0, 2, 36, 2
1886, 0, 3, 46, 3
1887, 1, 0, 79, 1
1888, 1, 1, 56, 0
1889, 1, 2, 87, 2
1890, 1, 3, 60, 3
1891, 2, 0, 50, 3
1892, 2, 1, 79, 0
1893, 2, 2, 78, 2
1894, 2, 3, 54, 1
1895, 3, 0, 62, 1
1896, 3, 1, 96, 3
1897, 3, 2, 80, 2
1898, 3, 3, 61, 0
